158
100
93
58
76
12
59
77
3
15
11
40
63
88
9
5
75
35
8
40
49
9
4
36
43
33
38
45
53
19
61
16
20
91
9
2
84
86
6
15
12
69
48
19
53
1
2
81
62
8
3
32
5
44
78
3
44
5
67
1
41
46
33
8
63
65
4
52
72
32
19
18
78
83
55
18
68
22
69
44
21
2
15
39
37
23
45
18
60
24
51
2
11
32
1
84
1
15
41
69
33
99
86
37
45
80
9
50
4
10
75
81
1
36
55
28
67
23
7
77
6
55
24
23
43
24
29
64
38
27
33
35
14
65
59
31
92
17
64
98
62
14
81
19
9
20
16
67
29
41
24
42
22
2
55
58
12
66
9
4
